c description: Perfect Matching Principle on 
c generator: CNFgen (0.9.0)
c copyright: (C) 2012-2020 Massimo Lauria <massimo.lauria@uniroma1.it>
c url: https://massimolauria.net/cnfgen
c
p cnf 40 121
-1 -2 0
-1 -3 0
-2 -3 0
1 2 3 0
-4 -5 0
-4 -6 0
-4 -7 0
-5 -6 0
-5 -7 0
-6 -7 0
4 5 6 7 0
-8 -9 0
-8 -10 0
-9 -10 0
8 9 10 0
-4 -11 0
-4 -12 0
-4 -13 0
-4 -14 0
-11 -12 0
-11 -13 0
-11 -14 0
-12 -13 0
-12 -14 0
-13 -14 0
4 11 12 13 14 0
0
-5 -11 0
-5 -15 0
-5 -16 0
-5 -17 0
-11 -15 0
-11 -16 0
-11 -17 0
-15 -16 0
-15 -17 0
-16 -17 0
5 11 15 16 17 0
-18 -19 0
-18 -20 0
-19 -20 0
18 19 20 0
21 0
-1 -22 0
1 22 0
0
-23 -24 0
-23 -25 0
-23 -26 0
-24 -25 0
-24 -26 0
-25 -26 0
23 24 25 26 0
-27 -28 0
27 28 0
-8 -23 0
-8 -29 0
-23 -29 0
8 23 29 0
-30 -31 0
30 31 0
12 0
15 0
-24 -32 0
24 32 0
18 0
-16 -32 0
16 32 0
-13 -33 0
13 33 0
34 0
-19 -27 0
-19 -35 0
-19 -36 0
-27 -35 0
-27 -36 0
-35 -36 0
19 27 35 36 0
37 0
0
0
-14 -35 0
14 35 0
0
-37 -38 0
37 38 0
0
30 0
25 0
-9 -39 0
9 39 0
0
-31 -40 0
31 40 0
6 0
-2 -26 0
-2 -39 0
-26 -39 0
2 26 39 0
-7 -20 0
-7 -28 0
-20 -28 0
7 20 28 0
-17 -33 0
-17 -40 0
-33 -40 0
17 33 40 0
-22 -29 0
-22 -34 0
-22 -36 0
-29 -34 0
-29 -36 0
-34 -36 0
22 29 34 36 0
-3 -10 0
-3 -21 0
-3 -38 0
-10 -21 0
-10 -38 0
-21 -38 0
3 10 21 38 0